Route 1: 140 28 163 48 47 49 6 14 63 149 120 135 5 197 162 132 78 171 130 187 20 77 46 138 186 134 58 144 71 121 79 126 73 96 34 8 76 1 60 2 185 141 122 10 19 93 146 200 39 103 83 110 36 179 18 80 51 91 148 116 183 102
Route 2: 89 182 57 152 131 24 156 15 7 68 167 196 124 43 180 3 136 190 184 27 72 52 109 189 125 101 151 22 106 192 50 145 119 178 70 154 11 157 177 65 173 139 75
Route 3: 32 117 165 37 169 133 147 85 31 40 98 61 81 23 160 112 198 111 95 44 90 137 153 123 115 69 17 13 29
Route 4: 4 9 195 42 84 199 127 155 118 105 26 159 191 176 113 114 166 87 16 107 82 30
Route 5: 142 100 54 12 88 172 181 164 104 35 62 25 170 41 194 55 33 150 158 74 193 67 175
Route 6: 97 174 92 64 161 128 59 143 56 45 108 168 94 99 53 38 188 86 21 129 66
Vehicles: 6
Distance: 5994.69
